n = 15;
m = 39;

max_len = 8;
word_lens = [ 4, 4, 4, 4, 4, 4, 4, 4, 4, 5, 5, 5, 5, 5, 5, 5, 5, 5, 5, 6, 6, 6, 6, 6, 6, 7, 7, 7, 7, 7, 7, 7, 7, 7, 7, 7, 7, 8, 8 ];
words = [| F, E, A, R, E, E, E, E | M, I, N, D, E, E, E, E | L, O, V, E, E, E, E, E | H, E, R, O, E, E, E, E | W, I, S, H, E, E, E, E | D, O, Z, E, E, E, E, E | D, O, S, S, E, E, E, E | D, A, R, K, E, E, E, E | P, A, I, N, E, E, E, E | G, L, O, R, Y, E, E, E | Q, U, E, S, T, E, E, E | I, M, A, G, E, E, E, E | S, N, O, R, E, E, E, E | S, L, O, O, M, E, E, E | H, Y, P, N, O, E, E, E | N, A, R, C, O, E, E, E | O, M, E, N, S, E, E, E | W, A, K, E, N, E, E, E | G, O, U, N, D, E, E, E | S, T, R, E, S, S, E, E | S, N, O, O, Z, E, E, E | D, E, S, I, R, E, E, E | V, I, S, I, O, N, E, E | D, R, O, W, S, E, E, E | D, R, E, A, M, S, E, E | F, A, N, T, A, S, Y, E | S, L, U, M, B, E, R, E | R, E, A, L, I, T, Y, E | D, E, S, T, I, N, Y, E | P, A, S, S, I, O, N, E | M, A, G, I, C, A, L, E | S, P, I, D, E, R, S, E | W, A, K, E, F, U, L, E | S, H, U, T, E, Y, E, E | A, N, I, M, I, S, T, E | P, A, P, Y, R, U, S, E | O, R, A, C, L, E, S, E | A, M, B, I, T, I, O, N | P, R, O, P, H, E, C, Y |];
